<number of tasks>
50

<cycle time>
1000

<order strength>
0.597


<task times>
1 530
2 428
3 415
4 641
5 397
6 302
7 670
8 502
9 608
10 453
11 502
12 502
13 715
14 649
15 660
16 483
17 236
18 554
19 477
20 479
21 462
22 366
23 417
24 521
25 258
26 340
27 218
28 428
29 631
30 433
31 390
32 484
33 283
34 527
35 362
36 431
37 505
38 452
39 290
40 471
41 650
42 651
43 669
44 446
45 491
46 512
47 498
48 718
49 309
50 607

<precedence relations>
1,8
2,8
3,8
4,8
5,9
5,10
6,11
6,22
6,26
7,11
7,12
8,13
8,14
8,15
8,16
8,17
9,41
10,18
10,23
12,19
12,21
12,32
13,24
14,21
14,22
15,23
17,21
18,40
19,20
20,24
21,24
22,24
23,25
23,26
23,27
24,28
24,29
24,30
24,31
25,39
26,32
27,32
28,34
29,33
29,34
30,33
30,34
31,34
31,35
32,33
33,35
34,41
34,43
35,36
35,37
35,38
35,39
35,40
36,41
37,41
38,41
39,42
39,45
40,43
40,44
41,46
41,47
41,48
41,49
41,50

<end>
